c Reduced graph for queen12_12g generated by Cyril Grelier
p edge 144 2596
e 1 2
e 1 3
e 1 4
e 1 5
e 1 6
e 1 7
e 1 9
e 1 10
e 1 11
e 1 14
e 1 16
e 1 17
e 1 19
e 1 21
e 1 25
e 1 26
e 1 29
e 1 33
e 1 36
e 1 37
e 1 40
e 1 43
e 1 49
e 1 50
e 1 55
e 1 60
e 1 64
e 1 65
e 1 69
e 1 73
e 1 81
e 1 82
e 1 89
e 1 95
e 1 100
e 1 101
e 1 106
e 1 111
e 1 121
e 1 122
e 1 131
e 1 138
e 1 144
e 2 3
e 2 4
e 2 6
e 2 7
e 2 8
e 2 9
e 2 10
e 2 12
e 2 13
e 2 15
e 2 18
e 2 20
e 2 22
e 2 25
e 2 26
e 2 30
e 2 31
e 2 34
e 2 38
e 2 41
e 2 44
e 2 49
e 2 50
e 2 56
e 2 57
e 2 61
e 2 66
e 2 70
e 2 74
e 2 81
e 2 82
e 2 90
e 2 91
e 2 96
e 2 102
e 2 107
e 2 112
e 2 121
e 2 122
e 2 132
e 2 133
e 2 139
e 3 4
e 3 6
e 3 8
e 3 9
e 3 11
e 3 12
e 3 13
e 3 14
e 3 15
e 3 19
e 3 22
e 3 23
e 3 27
e 3 28
e 3 31
e 3 33
e 3 35
e 3 40
e 3 44
e 3 45
e 3 51
e 3 52
e 3 57
e 3 60
e 3 63
e 3 69
e 3 74
e 3 75
e 3 83
e 3 84
e 3 91
e 3 95
e 3 99
e 3 106
e 3 112
e 3 113
e 3 123
e 3 124
e 3 133
e 3 138
e 3 143
e 4 5
e 4 7
e 4 10
e 4 11
e 4 12
e 4 14
e 4 15
e 4 16
e 4 17
e 4 20
e 4 24
e 4 27
e 4 28
e 4 32
e 4 34
e 4 36
e 4 37
e 4 41
e 4 46
e 4 51
e 4 52
e 4 58
e 4 61
e 4 64
e 4 65
e 4 70
e 4 76
e 4 83
e 4 84
e 4 92
e 4 96
e 4 100
e 4 101
e 4 107
e 4 114
e 4 123
e 4 124
e 4 134
e 4 139
e 4 144
e 5 6
e 5 7
e 5 8
e 5 9
e 5 11
e 5 13
e 5 16
e 5 17
e 5 18
e 5 19
e 5 23
e 5 24
e 5 25
e 5 32
e 5 36
e 5 37
e 5 39
e 5 41
e 5 47
e 5 48
e 5 51
e 5 59
e 5 64
e 5 65
e 5 68
e 5 71
e 5 79
e 5 80
e 5 85
e 5 94
e 5 100
e 5 101
e 5 105
e 5 109
e 5 119
e 5 120
e 5 127
e 5 137
e 5 144
e 6 7
e 6 8
e 6 9
e 6 12
e 6 14
e 6 18
e 6 19
e 6 20
e 6 23
e 6 24
e 6 27
e 6 30
e 6 33
e 6 38
e 6 40
e 6 42
e 6 47
e 6 48
e 6 53
e 6 56
e 6 60
e 6 66
e 6 69
e 6 72
e 6 79
e 6 80
e 6 87
e 6 90
e 6 95
e 6 102
e 6 106
e 6 110
e 6 119
e 6 120
e 6 129
e 6 132
e 6 138
e 7 8
e 7 10
e 7 11
e 7 15
e 7 19
e 7 20
e 7 21
e 7 23
e 7 24
e 7 28
e 7 29
e 7 34
e 7 39
e 7 41
e 7 43
e 7 47
e 7 48
e 7 54
e 7 55
e 7 61
e 7 67
e 7 70
e 7 73
e 7 79
e 7 80
e 7 88
e 7 89
e 7 96
e 7 103
e 7 107
e 7 111
e 7 119
e 7 120
e 7 130
e 7 131
e 7 139
e 8 10
e 8 12
e 8 13
e 8 16
e 8 20
e 8 21
e 8 22
e 8 23
e 8 24
e 8 26
e 8 31
e 8 35
e 8 40
e 8 42
e 8 44
e 8 47
e 8 48
e 8 52
e 8 57
e 8 62
e 8 68
e 8 71
e 8 74
e 8 79
e 8 80
e 8 86
e 8 91
e 8 97
e 8 104
e 8 108
e 8 112
e 8 119
e 8 120
e 8 128
e 8 133
e 8 140
e 9 10
e 9 11
e 9 13
e 9 15
e 9 18
e 9 20
e 9 23
e 9 25
e 9 26
e 9 27
e 9 32
e 9 35
e 9 39
e 9 42
e 9 45
e 9 49
e 9 50
e 9 53
e 9 59
e 9 63
e 9 68
e 9 72
e 9 75
e 9 81
e 9 82
e 9 87
e 9 94
e 9 99
e 9 105
e 9 110
e 9 113
e 9 121
e 9 122
e 9 129
e 9 137
e 9 143
e 10 12
e 10 14
e 10 16
e 10 19
e 10 21
e 10 24
e 10 25
e 10 26
e 10 28
e 10 32
e 10 35
e 10 39
e 10 42
e 10 46
e 10 49
e 10 50
e 10 54
e 10 58
e 10 62
e 10 67
e 10 71
e 10 76
e 10 81
e 10 82
e 10 88
e 10 92
e 10 97
e 10 103
e 10 108
e 10 114
e 10 121
e 10 122
e 10 130
e 10 134
e 10 140
e 11 12
e 11 13
e 11 14
e 11 18
e 11 21
e 11 25
e 11 27
e 11 28
e 11 29
e 11 32
e 11 34
e 11 39
e 11 43
e 11 47
e 11 51
e 11 52
e 11 55
e 11 59
e 11 62
e 11 68
e 11 73
e 11 77
e 11 83
e 11 84
e 11 89
e 11 94
e 11 98
e 11 105
e 11 111
e 11 115
e 11 123
e 11 124
e 11 131
e 11 137
e 11 142
e 12 15
e 12 16
e 12 18
e 12 21
e 12 26
e 12 27
e 12 28
e 12 30
e 12 33
e 12 35
e 12 38
e 12 42
e 12 48
e 12 51
e 12 52
e 12 56
e 12 59
e 12 62
e 12 66
e 12 71
e 12 78
e 12 83
e 12 84
e 12 90
e 12 93
e 12 97
e 12 102
e 12 108
e 12 116
e 12 123
e 12 124
e 12 132
e 12 135
e 12 140
e 13 14
e 13 15
e 13 16
e 13 18
e 13 22
e 13 27
e 13 29
e 13 30
e 13 31
e 13 32
e 13 33
e 13 39
e 13 44
e 13 49
e 13 53
e 13 54
e 13 57
e 13 59
e 13 61
e 13 68
e 13 74
e 13 79
e 13 85
e 13 86
e 13 91
e 13 94
e 13 97
e 13 105
e 13 112
e 13 117
e 13 125
e 13 126
e 13 133
e 13 137
e 13 141
e 14 15
e 14 16
e 14 19
e 14 24
e 14 25
e 14 29
e 14 30
e 14 32
e 14 33
e 14 34
e 14 40
e 14 46
e 14 47
e 14 53
e 14 54
e 14 58
e 14 60
e 14 62
e 14 69
e 14 76
e 14 77
e 14 85
e 14 86
e 14 92
e 14 95
e 14 98
e 14 106
e 14 114
e 14 115
e 14 125
e 14 126
e 14 134
e 14 138
e 14 142
e 15 16
e 15 20
e 15 23
e 15 26
e 15 29
e 15 30
e 15 33
e 15 34
e 15 35
e 15 41
e 15 45
e 15 48
e 15 53
e 15 54
e 15 59
e 15 61
e 15 63
e 15 70
e 15 75
e 15 78
e 15 85
e 15 86
e 15 93
e 15 96
e 15 99
e 15 107
e 15 113
e 15 116
e 15 125
e 15 126
e 15 135
e 15 139
e 15 143
e 16 17
e 16 21
e 16 28
e 16 29
e 16 30
e 16 34
e 16 35
e 16 36
e 16 37
e 16 42
e 16 50
e 16 53
e 16 54
e 16 60
e 16 62
e 16 64
e 16 65
e 16 71
e 16 80
e 16 85
e 16 86
e 16 94
e 16 97
e 16 100
e 16 101
e 16 108
e 16 118
e 16 125
e 16 126
e 16 136
e 16 140
e 16 144
e 17 18
e 17 19
e 17 20
e 17 21
e 17 22
e 17 23
e 17 25
e 17 27
e 17 29
e 17 31
e 17 36
e 17 37
e 17 38
e 17 39
e 17 45
e 17 46
e 17 47
e 17 58
e 17 64
e 17 65
e 17 67
e 17 69
e 17 77
e 17 78
e 17 81
e 17 93
e 17 100
e 17 101
e 17 104
e 17 107
e 17 117
e 17 118
e 17 123
e 17 136
e 17 144
e 18 19
e 18 20
e 18 21
e 18 22
e 18 23
e 18 30
e 18 32
e 18 38
e 18 39
e 18 40
e 18 45
e 18 46
e 18 49
e 18 56
e 18 59
e 18 66
e 18 68
e 18 70
e 18 77
e 18 78
e 18 83
e 18 90
e 18 94
e 18 102
e 18 105
e 18 108
e 18 117
e 18 118
e 18 125
e 18 132
e 18 137
e 19 20
e 19 21
e 19 22
e 19 25
e 19 28
e 19 33
e 19 39
e 19 40
e 19 41
e 19 45
e 19 46
e 19 51
e 19 54
e 19 60
e 19 67
e 19 69
e 19 71
e 19 77
e 19 78
e 19 85
e 19 88
e 19 95
e 19 103
e 19 106
e 19 109
e 19 117
e 19 118
e 19 127
e 19 130
e 19 138
e 20 21
e 20 22
e 20 26
e 20 27
e 20 34
e 20 40
e 20 41
e 20 42
e 20 45
e 20 46
e 20 52
e 20 53
e 20 61
e 20 68
e 20 70
e 20 72
e 20 77
e 20 78
e 20 86
e 20 87
e 20 96
e 20 104
e 20 107
e 20 110
e 20 117
e 20 118
e 20 128
e 20 129
e 20 139
e 21 22
e 21 24
e 21 29
e 21 35
e 21 41
e 21 42
e 21 43
e 21 45
e 21 46
e 21 50
e 21 55
e 21 62
e 21 69
e 21 71
e 21 73
e 21 77
e 21 78
e 21 84
e 21 89
e 21 97
e 21 105
e 21 108
e 21 111
e 21 117
e 21 118
e 21 126
e 21 131
e 21 140
e 22 24
e 22 26
e 22 28
e 22 30
e 22 31
e 22 36
e 22 42
e 22 43
e 22 44
e 22 45
e 22 46
e 22 48
e 22 57
e 22 63
e 22 70
e 22 72
e 22 74
e 22 77
e 22 78
e 22 82
e 22 91
e 22 98
e 22 106
e 22 109
e 22 112
e 22 117
e 22 118
e 22 124
e 22 133
e 22 141
e 23 24
e 23 25
e 23 27
e 23 29
e 23 31
e 23 35
e 23 38
e 23 40
e 23 45
e 23 47
e 23 48
e 23 49
e 23 58
e 23 63
e 23 67
e 23 70
e 23 75
e 23 79
e 23 80
e 23 83
e 23 93
e 23 99
e 23 104
e 23 108
e 23 113
e 23 119
e 23 120
e 23 125
e 23 136
e 23 143
e 24 26
e 24 28
e 24 30
e 24 32
e 24 36
e 24 41
e 24 43
e 24 46
e 24 47
e 24 48
e 24 50
e 24 58
e 24 63
e 24 69
e 24 72
e 24 76
e 24 79
e 24 80
e 24 84
e 24 92
e 24 98
e 24 105
e 24 109
e 24 114
e 24 119
e 24 120
e 24 126
e 24 134
e 24 141
e 25 26
e 25 27
e 25 29
e 25 31
e 25 34
e 25 38
e 25 41
e 25 47
e 25 49
e 25 50
e 25 51
e 25 58
e 25 62
e 25 67
e 25 71
e 25 77
e 25 81
e 25 82
e 25 85
e 25 93
e 25 98
e 25 104
e 25 109
e 25 115
e 25 121
e 25 122
e 25 127
e 25 136
e 25 142
e 26 28
e 26 30
e 26 33
e 26 36
e 26 40
e 26 43
e 26 48
e 26 49
e 26 50
e 26 52
e 26 59
e 26 63
e 26 68
e 26 72
e 26 78
e 26 81
e 26 82
e 26 86
e 26 93
e 26 98
e 26 104
e 26 109
e 26 116
e 26 121
e 26 122
e 26 128
e 26 135
e 26 141
e 27 28
e 27 29
e 27 31
e 27 33
e 27 38
e 27 42
e 27 49
e 27 51
e 27 52
e 27 53
e 27 58
e 27 61
e 27 67
e 27 72
e 27 79
e 27 83
e 27 84
e 27 87
e 27 93
e 27 97
e 27 104
e 27 110
e 27 117
e 27 123
e 27 124
e 27 129
e 27 136
e 27 141
e 28 30
e 28 34
e 28 36
e 28 39
e 28 43
e 28 50
e 28 51
e 28 52
e 28 54
e 28 60
e 28 63
e 28 67
e 28 72
e 28 80
e 28 83
e 28 84
e 28 88
e 28 94
e 28 98
e 28 103
e 28 109
e 28 118
e 28 123
e 28 124
e 28 130
e 28 136
e 28 141
e 29 30
e 29 31
e 29 32
e 29 38
e 29 43
e 29 51
e 29 53
e 29 54
e 29 55
e 29 58
e 29 60
e 29 67
e 29 73
e 29 81
e 29 85
e 29 86
e 29 89
e 29 93
e 29 96
e 29 104
e 29 111
e 29 119
e 29 125
e 29 126
e 29 131
e 29 136
e 29 140
e 30 35
e 30 36
e 30 38
e 30 43
e 30 52
e 30 53
e 30 54
e 30 56
e 30 61
e 30 63
e 30 66
e 30 72
e 30 82
e 30 85
e 30 86
e 30 90
e 30 95
e 30 98
e 30 102
e 30 109
e 30 120
e 30 125
e 30 126
e 30 132
e 30 137
e 30 141
e 31 32
e 31 33
e 31 34
e 31 35
e 31 36
e 31 38
e 31 44
e 31 53
e 31 55
e 31 56
e 31 57
e 31 58
e 31 59
e 31 67
e 31 74
e 31 83
e 31 87
e 31 88
e 31 91
e 31 93
e 31 95
e 31 104
e 31 112
e 31 121
e 31 127
e 31 128
e 31 133
e 31 136
e 31 139
e 32 33
e 32 34
e 32 35
e 32 36
e 32 39
e 32 46
e 32 51
e 32 55
e 32 56
e 32 58
e 32 59
e 32 60
e 32 68
e 32 76
e 32 81
e 32 87
e 32 88
e 32 92
e 32 94
e 32 96
e 32 105
e 32 114
e 32 119
e 32 127
e 32 128
e 32 134
e 32 137
e 32 140
e 33 34
e 33 35
e 33 36
e 33 40
e 33 48
e 33 49
e 33 55
e 33 56
e 33 59
e 33 60
e 33 61
e 33 69
e 33 78
e 33 79
e 33 87
e 33 88
e 33 93
e 33 95
e 33 97
e 33 106
e 33 116
e 33 117
e 33 127
e 33 128
e 33 135
e 33 138
e 33 141
e 34 35
e 34 36
e 34 41
e 34 47
e 34 50
e 34 55
e 34 56
e 34 60
e 34 61
e 34 62
e 34 70
e 34 77
e 34 80
e 34 87
e 34 88
e 34 94
e 34 96
e 34 98
e 34 107
e 34 115
e 34 118
e 34 127
e 34 128
e 34 136
e 34 139
e 34 142
e 35 36
e 35 42
e 35 45
e 35 52
e 35 55
e 35 56
e 35 61
e 35 62
e 35 63
e 35 71
e 35 75
e 35 82
e 35 87
e 35 88
e 35 95
e 35 97
e 35 99
e 35 108
e 35 113
e 35 120
e 35 127
e 35 128
e 35 137
e 35 140
e 35 143
e 36 37
e 36 43
e 36 54
e 36 55
e 36 56
e 36 62
e 36 63
e 36 64
e 36 65
e 36 72
e 36 84
e 36 87
e 36 88
e 36 96
e 36 98
e 36 100
e 36 101
e 36 109
e 36 122
e 36 127
e 36 128
e 36 138
e 36 141
e 36 144
e 37 38
e 37 39
e 37 40
e 37 41
e 37 42
e 37 43
e 37 44
e 37 45
e 37 47
e 37 49
e 37 51
e 37 53
e 37 55
e 37 57
e 37 64
e 37 65
e 37 66
e 37 67
e 37 75
e 37 76
e 37 77
e 37 92
e 37 100
e 37 101
e 37 103
e 37 105
e 37 115
e 37 116
e 37 119
e 37 135
e 37 144
e 38 39
e 38 40
e 38 41
e 38 42
e 38 43
e 38 44
e 38 45
e 38 56
e 38 58
e 38 66
e 38 67
e 38 68
e 38 75
e 38 76
e 38 79
e 38 90
e 38 93
e 38 102
e 38 104
e 38 106
e 38 115
e 38 116
e 38 121
e 38 132
e 38 136
e 39 40
e 39 41
e 39 42
e 39 43
e 39 44
e 39 47
e 39 54
e 39 59
e 39 67
e 39 68
e 39 69
e 39 75
e 39 76
e 39 81
e 39 88
e 39 94
e 39 103
e 39 105
e 39 107
e 39 115
e 39 116
e 39 123
e 39 130
e 39 137
e 40 41
e 40 42
e 40 43
e 40 44
e 40 49
e 40 52
e 40 60
e 40 68
e 40 69
e 40 70
e 40 75
e 40 76
e 40 83
e 40 86
e 40 95
e 40 104
e 40 106
e 40 108
e 40 115
e 40 116
e 40 125
e 40 128
e 40 138
e 41 42
e 41 43
e 41 44
e 41 50
e 41 51
e 41 61
e 41 69
e 41 70
e 41 71
e 41 75
e 41 76
e 41 84
e 41 85
e 41 96
e 41 105
e 41 107
e 41 109
e 41 115
e 41 116
e 41 126
e 41 127
e 41 139
e 42 43
e 42 44
e 42 48
e 42 53
e 42 62
e 42 70
e 42 71
e 42 72
e 42 75
e 42 76
e 42 82
e 42 87
e 42 97
e 42 106
e 42 108
e 42 110
e 42 115
e 42 116
e 42 124
e 42 129
e 42 140
e 43 44
e 43 46
e 43 55
e 43 63
e 43 71
e 43 72
e 43 73
e 43 75
e 43 76
e 43 80
e 43 89
e 43 98
e 43 107
e 43 109
e 43 111
e 43 115
e 43 116
e 43 122
e 43 131
e 43 141
e 44 46
e 44 48
e 44 50
e 44 52
e 44 54
e 44 56
e 44 57
e 44 64
e 44 72
e 44 73
e 44 74
e 44 75
e 44 76
e 44 78
e 44 91
e 44 99
e 44 108
e 44 110
e 44 112
e 44 115
e 44 116
e 44 120
e 44 133
e 44 142
e 45 46
e 45 47
e 45 49
e 45 51
e 45 53
e 45 55
e 45 57
e 45 63
e 45 66
e 45 68
e 45 75
e 45 77
e 45 78
e 45 79
e 45 92
e 45 99
e 45 103
e 45 106
e 45 113
e 45 117
e 45 118
e 45 121
e 45 135
e 45 143
e 46 48
e 46 50
e 46 52
e 46 54
e 46 56
e 46 58
e 46 64
e 46 71
e 46 73
e 46 76
e 46 77
e 46 78
e 46 80
e 46 92
e 46 99
e 46 107
e 46 110
e 46 114
e 46 117
e 46 118
e 46 122
e 46 134
e 46 142
e 47 48
e 47 49
e 47 51
e 47 53
e 47 55
e 47 57
e 47 62
e 47 66
e 47 69
e 47 77
e 47 79
e 47 80
e 47 81
e 47 92
e 47 98
e 47 103
e 47 107
e 47 115
e 47 119
e 47 120
e 47 123
e 47 135
e 47 142
e 48 50
e 48 52
e 48 54
e 48 56
e 48 59
e 48 64
e 48 70
e 48 73
e 48 78
e 48 79
e 48 80
e 48 82
e 48 93
e 48 99
e 48 106
e 48 110
e 48 116
e 48 119
e 48 120
e 48 124
e 48 135
e 48 142
e 49 50
e 49 51
e 49 53
e 49 55
e 49 57
e 49 61
e 49 66
e 49 70
e 49 79
e 49 81
e 49 82
e 49 83
e 49 92
e 49 97
e 49 103
e 49 108
e 49 117
e 49 121
e 49 122
e 49 125
e 49 135
e 49 141
e 50 52
e 50 54
e 50 56
e 50 60
e 50 64
e 50 69
e 50 73
e 50 80
e 50 81
e 50 82
e 50 84
e 50 94
e 50 99
e 50 105
e 50 110
e 50 118
e 50 121
e 50 122
e 50 126
e 50 136
e 50 142
e 51 52
e 51 53
e 51 55
e 51 57
e 51 60
e 51 66
e 51 71
e 51 81
e 51 83
e 51 84
e 51 85
e 51 92
e 51 96
e 51 103
e 51 109
e 51 119
e 51 123
e 51 124
e 51 127
e 51 135
e 51 140
e 52 54
e 52 56
e 52 61
e 52 64
e 52 68
e 52 73
e 52 82
e 52 83
e 52 84
e 52 86
e 52 95
e 52 99
e 52 104
e 52 110
e 52 120
e 52 123
e 52 124
e 52 128
e 52 137
e 52 142
e 53 54
e 53 55
e 53 57
e 53 59
e 53 66
e 53 72
e 53 83
e 53 85
e 53 86
e 53 87
e 53 92
e 53 95
e 53 103
e 53 110
e 53 121
e 53 125
e 53 126
e 53 129
e 53 135
e 53 139
e 54 56
e 54 62
e 54 64
e 54 67
e 54 73
e 54 84
e 54 85
e 54 86
e 54 88
e 54 96
e 54 99
e 54 103
e 54 110
e 54 122
e 54 125
e 54 126
e 54 130
e 54 138
e 54 142
e 55 56
e 55 57
e 55 58
e 55 66
e 55 73
e 55 85
e 55 87
e 55 88
e 55 89
e 55 92
e 55 94
e 55 103
e 55 111
e 55 123
e 55 127
e 55 128
e 55 131
e 55 135
e 55 138
e 56 63
e 56 64
e 56 66
e 56 73
e 56 86
e 56 87
e 56 88
e 56 90
e 56 97
e 56 99
e 56 102
e 56 110
e 56 124
e 56 127
e 56 128
e 56 132
e 56 139
e 56 142
e 57 58
e 57 59
e 57 60
e 57 61
e 57 62
e 57 63
e 57 64
e 57 66
e 57 74
e 57 87
e 57 89
e 57 90
e 57 91
e 57 92
e 57 93
e 57 103
e 57 112
e 57 125
e 57 129
e 57 130
e 57 133
e 57 135
e 57 137
e 58 59
e 58 60
e 58 61
e 58 62
e 58 63
e 58 64
e 58 67
e 58 76
e 58 85
e 58 89
e 58 90
e 58 92
e 58 93
e 58 94
e 58 104
e 58 114
e 58 123
e 58 129
e 58 130
e 58 134
e 58 136
e 58 138
e 59 60
e 59 61
e 59 62
e 59 63
e 59 64
e 59 68
e 59 78
e 59 83
e 59 89
e 59 90
e 59 93
e 59 94
e 59 95
e 59 105
e 59 116
e 59 121
e 59 129
e 59 130
e 59 135
e 59 137
e 59 139
e 60 61
e 60 62
e 60 63
e 60 64
e 60 69
e 60 80
e 60 81
e 60 89
e 60 90
e 60 94
e 60 95
e 60 96
e 60 106
e 60 118
e 60 119
e 60 129
e 60 130
e 60 136
e 60 138
e 60 140
e 61 62
e 61 63
e 61 64
e 61 70
e 61 79
e 61 82
e 61 89
e 61 90
e 61 95
e 61 96
e 61 97
e 61 107
e 61 117
e 61 120
e 61 129
e 61 130
e 61 137
e 61 139
e 61 141
e 62 63
e 62 64
e 62 71
e 62 77
e 62 84
e 62 89
e 62 90
e 62 96
e 62 97
e 62 98
e 62 108
e 62 115
e 62 122
e 62 129
e 62 130
e 62 138
e 62 140
e 62 142
e 63 64
e 63 72
e 63 75
e 63 86
e 63 89
e 63 90
e 63 97
e 63 98
e 63 99
e 63 109
e 63 113
e 63 124
e 63 129
e 63 130
e 63 139
e 63 141
e 63 143
e 64 65
e 64 73
e 64 88
e 64 89
e 64 90
e 64 98
e 64 99
e 64 100
e 64 101
e 64 110
e 64 126
e 64 129
e 64 130
e 64 140
e 64 142
e 64 144
e 65 66
e 65 67
e 65 68
e 65 69
e 65 70
e 65 71
e 65 72
e 65 73
e 65 74
e 65 75
e 65 77
e 65 79
e 65 81
e 65 83
e 65 85
e 65 87
e 65 89
e 65 91
e 65 100
e 65 101
e 65 102
e 65 103
e 65 113
e 65 114
e 65 115
e 65 134
e 65 144
e 66 67
e 66 68
e 66 69
e 66 70
e 66 71
e 66 72
e 66 73
e 66 74
e 66 75
e 66 90
e 66 92
e 66 102
e 66 103
e 66 104
e 66 113
e 66 114
e 66 117
e 66 132
e 66 135
e 67 68
e 67 69
e 67 70
e 67 71
e 67 72
e 67 73
e 67 74
e 67 77
e 67 88
e 67 93
e 67 103
e 67 104
e 67 105
e 67 113
e 67 114
e 67 119
e 67 130
e 67 136
e 68 69
e 68 70
e 68 71
e 68 72
e 68 73
e 68 74
e 68 79
e 68 86
e 68 94
e 68 104
e 68 105
e 68 106
e 68 113
e 68 114
e 68 121
e 68 128
e 68 137
e 69 70
e 69 71
e 69 72
e 69 73
e 69 74
e 69 81
e 69 84
e 69 95
e 69 105
e 69 106
e 69 107
e 69 113
e 69 114
e 69 123
e 69 126
e 69 138
e 70 71
e 70 72
e 70 73
e 70 74
e 70 82
e 70 83
e 70 96
e 70 106
e 70 107
e 70 108
e 70 113
e 70 114
e 70 124
e 70 125
e 70 139
e 71 72
e 71 73
e 71 74
e 71 80
e 71 85
e 71 97
e 71 107
e 71 108
e 71 109
e 71 113
e 71 114
e 71 122
e 71 127
e 71 140
e 72 73
e 72 74
e 72 78
e 72 87
e 72 98
e 72 108
e 72 109
e 72 110
e 72 113
e 72 114
e 72 120
e 72 129
e 72 141
e 73 74
e 73 76
e 73 89
e 73 99
e 73 109
e 73 110
e 73 111
e 73 113
e 73 114
e 73 118
e 73 131
e 73 142
e 74 76
e 74 78
e 74 80
e 74 82
e 74 84
e 74 86
e 74 88
e 74 90
e 74 91
e 74 100
e 74 110
e 74 111
e 74 112
e 74 113
e 74 114
e 74 116
e 74 133
e 74 143
e 75 76
e 75 77
e 75 79
e 75 81
e 75 83
e 75 85
e 75 87
e 75 89
e 75 91
e 75 99
e 75 102
e 75 104
e 75 113
e 75 115
e 75 116
e 75 117
e 75 134
e 75 143
e 76 78
e 76 80
e 76 82
e 76 84
e 76 86
e 76 88
e 76 90
e 76 92
e 76 100
e 76 109
e 76 111
e 76 114
e 76 115
e 76 116
e 76 118
e 76 134
e 76 143
e 77 78
e 77 79
e 77 81
e 77 83
e 77 85
e 77 87
e 77 89
e 77 91
e 77 98
e 77 102
e 77 105
e 77 115
e 77 117
e 77 118
e 77 119
e 77 134
e 77 142
e 78 80
e 78 82
e 78 84
e 78 86
e 78 88
e 78 90
e 78 93
e 78 100
e 78 108
e 78 111
e 78 116
e 78 117
e 78 118
e 78 120
e 78 135
e 78 143
e 79 80
e 79 81
e 79 83
e 79 85
e 79 87
e 79 89
e 79 91
e 79 97
e 79 102
e 79 106
e 79 117
e 79 119
e 79 120
e 79 121
e 79 134
e 79 141
e 80 82
e 80 84
e 80 86
e 80 88
e 80 90
e 80 94
e 80 100
e 80 107
e 80 111
e 80 118
e 80 119
e 80 120
e 80 122
e 80 136
e 80 143
e 81 82
e 81 83
e 81 85
e 81 87
e 81 89
e 81 91
e 81 96
e 81 102
e 81 107
e 81 119
e 81 121
e 81 122
e 81 123
e 81 134
e 81 140
e 82 84
e 82 86
e 82 88
e 82 90
e 82 95
e 82 100
e 82 106
e 82 111
e 82 120
e 82 121
e 82 122
e 82 124
e 82 137
e 82 143
e 83 84
e 83 85
e 83 87
e 83 89
e 83 91
e 83 95
e 83 102
e 83 108
e 83 121
e 83 123
e 83 124
e 83 125
e 83 134
e 83 139
e 84 86
e 84 88
e 84 90
e 84 96
e 84 100
e 84 105
e 84 111
e 84 122
e 84 123
e 84 124
e 84 126
e 84 138
e 84 143
e 85 86
e 85 87
e 85 89
e 85 91
e 85 94
e 85 102
e 85 109
e 85 123
e 85 125
e 85 126
e 85 127
e 85 134
e 85 138
e 86 88
e 86 90
e 86 97
e 86 100
e 86 104
e 86 111
e 86 124
e 86 125
e 86 126
e 86 128
e 86 139
e 86 143
e 87 88
e 87 89
e 87 91
e 87 93
e 87 102
e 87 110
e 87 125
e 87 127
e 87 128
e 87 129
e 87 134
e 87 137
e 88 90
e 88 98
e 88 100
e 88 103
e 88 111
e 88 126
e 88 127
e 88 128
e 88 130
e 88 140
e 88 143
e 89 90
e 89 91
e 89 92
e 89 102
e 89 111
e 89 127
e 89 129
e 89 130
e 89 131
e 89 134
e 89 136
e 90 99
e 90 100
e 90 102
e 90 111
e 90 128
e 90 129
e 90 130
e 90 132
e 90 141
e 90 143
e 91 92
e 91 93
e 91 94
e 91 95
e 91 96
e 91 97
e 91 98
e 91 99
e 91 100
e 91 102
e 91 112
e 91 129
e 91 131
e 91 132
e 91 133
e 91 134
e 91 135
e 92 93
e 92 94
e 92 95
e 92 96
e 92 97
e 92 98
e 92 99
e 92 100
e 92 103
e 92 114
e 92 127
e 92 131
e 92 132
e 92 134
e 92 135
e 92 136
e 93 94
e 93 95
e 93 96
e 93 97
e 93 98
e 93 99
e 93 100
e 93 104
e 93 116
e 93 125
e 93 131
e 93 132
e 93 135
e 93 136
e 93 137
e 94 95
e 94 96
e 94 97
e 94 98
e 94 99
e 94 100
e 94 105
e 94 118
e 94 123
e 94 131
e 94 132
e 94 136
e 94 137
e 94 138
e 95 96
e 95 97
e 95 98
e 95 99
e 95 100
e 95 106
e 95 120
e 95 121
e 95 131
e 95 132
e 95 137
e 95 138
e 95 139
e 96 97
e 96 98
e 96 99
e 96 100
e 96 107
e 96 119
e 96 122
e 96 131
e 96 132
e 96 138
e 96 139
e 96 140
e 97 98
e 97 99
e 97 100
e 97 108
e 97 117
e 97 124
e 97 131
e 97 132
e 97 139
e 97 140
e 97 141
e 98 99
e 98 100
e 98 109
e 98 115
e 98 126
e 98 131
e 98 132
e 98 140
e 98 141
e 98 142
e 99 100
e 99 110
e 99 113
e 99 128
e 99 131
e 99 132
e 99 141
e 99 142
e 99 143
e 100 101
e 100 111
e 100 130
e 100 131
e 100 132
e 100 142
e 100 143
e 100 144
e 101 102
e 101 103
e 101 104
e 101 105
e 101 106
e 101 107
e 101 108
e 101 109
e 101 110
e 101 111
e 101 112
e 101 113
e 101 115
e 101 117
e 101 119
e 101 121
e 101 123
e 101 125
e 101 127
e 101 129
e 101 131
e 101 133
e 101 144
e 102 103
e 102 104
e 102 105
e 102 106
e 102 107
e 102 108
e 102 109
e 102 110
e 102 111
e 102 112
e 102 113
e 102 132
e 102 134
e 103 104
e 103 105
e 103 106
e 103 107
e 103 108
e 103 109
e 103 110
e 103 111
e 103 112
e 103 115
e 103 130
e 103 135
e 104 105
e 104 106
e 104 107
e 104 108
e 104 109
e 104 110
e 104 111
e 104 112
e 104 117
e 104 128
e 104 136
e 105 106
e 105 107
e 105 108
e 105 109
e 105 110
e 105 111
e 105 112
e 105 119
e 105 126
e 105 137
e 106 107
e 106 108
e 106 109
e 106 110
e 106 111
e 106 112
e 106 121
e 106 124
e 106 138
e 107 108
e 107 109
e 107 110
e 107 111
e 107 112
e 107 122
e 107 123
e 107 139
e 108 109
e 108 110
e 108 111
e 108 112
e 108 120
e 108 125
e 108 140
e 109 110
e 109 111
e 109 112
e 109 118
e 109 127
e 109 141
e 110 111
e 110 112
e 110 116
e 110 129
e 110 142
e 111 112
e 111 114
e 111 131
e 111 143
e 112 114
e 112 116
e 112 118
e 112 120
e 112 122
e 112 124
e 112 126
e 112 128
e 112 130
e 112 132
e 112 133
e 112 144
e 113 114
e 113 115
e 113 117
e 113 119
e 113 121
e 113 123
e 113 125
e 113 127
e 113 129
e 113 131
e 113 133
e 113 143
e 114 116
e 114 118
e 114 120
e 114 122
e 114 124
e 114 126
e 114 128
e 114 130
e 114 132
e 114 134
e 114 144
e 115 116
e 115 117
e 115 119
e 115 121
e 115 123
e 115 125
e 115 127
e 115 129
e 115 131
e 115 133
e 115 142
e 116 118
e 116 120
e 116 122
e 116 124
e 116 126
e 116 128
e 116 130
e 116 132
e 116 135
e 116 144
e 117 118
e 117 119
e 117 121
e 117 123
e 117 125
e 117 127
e 117 129
e 117 131
e 117 133
e 117 141
e 118 120
e 118 122
e 118 124
e 118 126
e 118 128
e 118 130
e 118 132
e 118 136
e 118 144
e 119 120
e 119 121
e 119 123
e 119 125
e 119 127
e 119 129
e 119 131
e 119 133
e 119 140
e 120 122
e 120 124
e 120 126
e 120 128
e 120 130
e 120 132
e 120 137
e 120 144
e 121 122
e 121 123
e 121 125
e 121 127
e 121 129
e 121 131
e 121 133
e 121 139
e 122 124
e 122 126
e 122 128
e 122 130
e 122 132
e 122 138
e 122 144
e 123 124
e 123 125
e 123 127
e 123 129
e 123 131
e 123 133
e 123 138
e 124 126
e 124 128
e 124 130
e 124 132
e 124 139
e 124 144
e 125 126
e 125 127
e 125 129
e 125 131
e 125 133
e 125 137
e 126 128
e 126 130
e 126 132
e 126 140
e 126 144
e 127 128
e 127 129
e 127 131
e 127 133
e 127 136
e 128 130
e 128 132
e 128 141
e 128 144
e 129 130
e 129 131
e 129 133
e 129 135
e 130 132
e 130 142
e 130 144
e 131 132
e 131 133
e 131 134
e 132 143
e 132 144
e 133 134
e 133 135
e 133 136
e 133 137
e 133 138
e 133 139
e 133 140
e 133 141
e 133 142
e 133 143
e 133 144
e 134 135
e 134 136
e 134 137
e 134 138
e 134 139
e 134 140
e 134 141
e 134 142
e 134 143
e 134 144
e 135 136
e 135 137
e 135 138
e 135 139
e 135 140
e 135 141
e 135 142
e 135 143
e 135 144
e 136 137
e 136 138
e 136 139
e 136 140
e 136 141
e 136 142
e 136 143
e 136 144
e 137 138
e 137 139
e 137 140
e 137 141
e 137 142
e 137 143
e 137 144
e 138 139
e 138 140
e 138 141
e 138 142
e 138 143
e 138 144
e 139 140
e 139 141
e 139 142
e 139 143
e 139 144
e 140 141
e 140 142
e 140 143
e 140 144
e 141 142
e 141 143
e 141 144
e 142 143
e 142 144
e 143 144
